c bread 1
c peas 2
c cauliflower 3
c ravioli 4
c oranges 5
p cnf 5 10
-1 -2 0
-3 -4 0
-5 -1 0
-2 -3 0
-4 -5 0
-1 3 4 0
c 1 -4 0
-3 1 5 0
c 3 -5 0
-2 4 5 0
c 2 -5 0
-4 1 2 0
c 4 -2 0
-5 3 2 0
c 5 -2 0
